0000000000000000
0000010000000000
0001111110000000
0001111111000000
0000001111000000
0000000111000000
0000000111000000
0000000111000000
0000000111000000
0000000111000000
0000111111000000
0001111111100000
0011111011100000
0011110011100000
0111110011100000
0111100011100000
